33D32945 STP File, STP Format Version 1.0

SECTION Comment
Name    "Series C" 
Creator "A. M. Costa" 
Format  "Z.H. Fu and J. K. Hao"
Remark  "Sparse graph with random weights"
#TotalEdgeCost 5419
#BudgetFraction 20
END 

SECTION Graph 
Nodes 500 
Edges 1000 
Root 1
Budget 270
HopLimit 5
E 1 246 2 
E 2 59 6 
E 2 220 6 
E 2 223 1 
E 2 303 7 
E 2 310 10 
E 2 352 2 
E 2 358 6 
E 2 408 5 
E 2 438 6 
E 3 178 6 
E 3 306 3 
E 3 337 8 
E 4 339 9 
E 4 357 6 
E 5 20 5 
E 5 211 4 
E 5 357 6 
E 5 408 4 
E 5 436 7 
E 5 470 5 
E 6 31 3 
E 6 279 6 
E 6 380 5 
E 6 388 2 
E 6 499 2 
E 7 39 2 
E 7 269 1 
E 7 461 10 
E 7 463 4 
E 8 48 8 
E 8 104 6 
E 8 264 8 
E 8 290 4 
E 8 294 10 
E 8 459 6 
E 9 131 2 
E 9 202 5 
E 9 296 5 
E 10 97 1 
E 10 133 3 
E 10 194 1 
E 11 66 9 
E 11 281 2 
E 11 460 10 
E 11 461 9 
E 11 497 5 
E 12 120 9 
E 13 91 5 
E 13 151 7 
E 13 206 2 
E 13 436 5 
E 14 145 8 
E 14 153 8 
E 15 246 3 
E 15 256 5 
E 15 322 10 
E 16 136 3 
E 16 151 10 
E 16 433 7 
E 16 443 3 
E 17 57 1 
E 17 117 7 
E 17 203 6 
E 17 363 7 
E 17 430 4 
E 17 437 4 
E 18 163 6 
E 18 179 10 
E 18 235 9 
E 19 254 7 
E 19 422 2 
E 19 427 1 
E 20 45 2 
E 20 97 7 
E 20 302 4 
E 20 387 9 
E 21 191 6 
E 21 234 8 
E 21 246 10 
E 21 256 2 
E 21 263 4 
E 21 266 8 
E 21 270 10 
E 21 397 4 
E 21 428 1 
E 21 482 7 
E 22 108 10 
E 22 232 8 
E 22 235 2 
E 23 272 4 
E 24 263 6 
E 24 366 9 
E 25 82 1 
E 25 91 9 
E 26 28 5 
E 26 109 8 
E 26 110 8 
E 26 137 6 
E 27 207 7 
E 27 246 5 
E 27 288 2 
E 27 398 3 
E 27 416 3 
E 27 494 3 
E 28 84 8 
E 28 268 8 
E 28 372 1 
E 28 453 9 
E 29 52 6 
E 29 214 3 
E 29 421 7 
E 30 454 2 
E 31 89 7 
E 31 92 2 
E 31 148 6 
E 31 195 5 
E 32 93 6 
E 32 141 4 
E 32 203 3 
E 32 234 10 
E 32 253 2 
E 32 353 4 
E 32 440 9 
E 33 133 7 
E 33 186 4 
E 34 333 3 
E 34 350 7 
E 34 374 8 
E 35 51 1 
E 35 196 7 
E 35 300 6 
E 36 83 10 
E 36 126 8 
E 36 132 5 
E 36 155 4 
E 36 210 10 
E 36 283 3 
E 36 401 6 
E 36 450 3 
E 37 426 8 
E 38 89 6 
E 38 266 1 
E 38 496 6 
E 39 94 4 
E 39 191 3 
E 39 325 4 
E 39 369 5 
E 39 456 2 
E 40 65 4 
E 40 251 10 
E 40 287 4 
E 40 295 6 
E 40 332 4 
E 41 333 1 
E 41 441 8 
E 42 46 7 
E 42 138 8 
E 42 279 2 
E 42 352 1 
E 42 359 9 
E 42 469 9 
E 43 45 9 
E 43 136 7 
E 43 491 8 
E 44 262 1 
E 44 389 3 
E 44 470 8 
E 45 160 7 
E 45 249 4 
E 45 359 6 
E 46 116 2 
E 46 214 4 
E 46 376 10 
E 46 480 10 
E 47 128 5 
E 48 162 4 
E 48 194 8 
E 48 198 5 
E 48 221 9 
E 49 68 9 
E 49 77 9 
E 49 153 10 
E 49 205 9 
E 49 235 2 
E 49 381 2 
E 50 196 10 
E 50 237 1 
E 50 275 9 
E 51 271 9 
E 51 407 1 
E 52 97 2 
E 52 254 5 
E 52 274 9 
E 52 301 6 
E 52 402 7 
E 53 373 10 
E 53 432 6 
E 54 387 2 
E 54 437 3 
E 55 298 4 
E 55 325 10 
E 55 380 10 
E 56 268 9 
E 56 350 8 
E 57 138 4 
E 57 403 2 
E 58 260 4 
E 58 369 3 
E 58 465 10 
E 58 498 6 
E 59 83 8 
E 59 107 1 
E 59 196 9 
E 59 434 4 
E 59 484 1 
E 60 262 6 
E 60 290 3 
E 61 73 8 
E 61 259 4 
E 61 261 8 
E 61 399 9 
E 62 194 2 
E 62 449 6 
E 63 191 2 
E 63 235 2 
E 63 435 8 
E 63 452 5 
E 63 458 3 
E 64 159 2 
E 64 278 1 
E 64 349 7 
E 64 486 6 
E 65 447 2 
E 66 114 3 
E 66 137 8 
E 66 156 4 
E 66 170 6 
E 66 337 7 
E 66 362 3 
E 66 414 5 
E 67 297 5 
E 67 404 6 
E 68 114 7 
E 68 135 9 
E 68 206 8 
E 68 326 8 
E 68 344 4 
E 68 385 7 
E 68 404 9 
E 68 456 1 
E 68 457 10 
E 69 278 7 
E 69 359 7 
E 70 269 5 
E 70 418 4 
E 70 437 4 
E 71 194 9 
E 71 278 6 
E 71 345 3 
E 71 347 5 
E 71 473 6 
E 72 152 3 
E 72 391 7 
E 72 457 10 
E 73 266 8 
E 73 475 4 
E 74 206 8 
E 74 271 1 
E 74 307 3 
E 74 371 3 
E 74 466 4 
E 75 123 4 
E 75 159 9 
E 75 226 6 
E 75 257 6 
E 76 146 7 
E 76 466 8 
E 77 258 4 
E 77 401 9 
E 78 118 7 
E 78 126 3 
E 78 137 2 
E 78 230 7 
E 78 378 3 
E 78 486 7 
E 79 115 7 
E 79 123 1 
E 79 189 4 
E 79 357 8 
E 79 442 9 
E 80 261 1 
E 80 488 2 
E 81 219 8 
E 81 453 1 
E 82 170 5 
E 82 197 1 
E 82 280 7 
E 82 316 6 
E 82 393 5 
E 83 254 8 
E 83 305 7 
E 83 408 2 
E 83 417 10 
E 83 428 5 
E 84 192 8 
E 84 254 4 
E 84 262 8 
E 84 459 10 
E 84 476 2 
E 85 453 1 
E 86 160 6 
E 86 246 8 
E 86 343 10 
E 86 383 3 
E 86 441 6 
E 86 489 8 
E 87 366 10 
E 88 113 5 
E 88 117 5 
E 88 326 9 
E 88 480 8 
E 89 90 2 
E 89 98 6 
E 89 275 8 
E 89 358 9 
E 89 472 7 
E 90 260 3 
E 90 316 10 
E 90 391 5 
E 91 207 2 
E 91 363 3 
E 91 486 9 
E 92 301 4 
E 92 387 1 
E 93 476 6 
E 94 207 10 
E 94 247 7 
E 94 420 6 
E 95 115 3 
E 95 244 9 
E 96 225 5 
E 96 279 9 
E 97 190 9 
E 98 440 6 
E 99 164 4 
E 99 319 9 
E 99 421 10 
E 100 234 1 
E 100 308 8 
E 100 347 10 
E 101 121 1 
E 101 244 9 
E 102 110 5 
E 102 197 5 
E 102 309 1 
E 103 147 2 
E 103 239 3 
E 103 284 1 
E 103 419 1 
E 103 425 10 
E 104 121 1 
E 105 153 5 
E 105 265 3 
E 105 309 9 
E 105 321 10 
E 105 387 9 
E 106 238 6 
E 107 211 1 
E 107 306 3 
E 108 234 5 
E 108 268 5 
E 108 362 5 
E 109 272 5 
E 109 334 10 
E 110 235 7 
E 110 348 8 
E 110 355 2 
E 110 372 5 
E 110 408 2 
E 111 408 9 
E 111 463 5 
E 111 477 8 
E 111 483 2 
E 112 449 3 
E 113 362 6 
E 113 400 8 
E 113 403 10 
E 114 146 7 
E 114 178 3 
E 114 380 9 
E 114 438 2 
E 114 491 7 
E 115 321 3 
E 115 496 5 
E 117 131 7 
E 118 276 6 
E 118 409 3 
E 119 199 7 
E 119 334 1 
E 120 292 7 
E 120 349 2 
E 120 430 7 
E 121 123 1 
E 122 148 7 
E 122 465 6 
E 123 191 5 
E 123 271 4 
E 123 312 4 
E 123 314 9 
E 123 379 6 
E 124 311 8 
E 124 321 10 
E 124 392 2 
E 124 452 2 
E 125 165 1 
E 125 318 5 
E 125 461 9 
E 126 182 2 
E 126 236 1 
E 126 293 10 
E 126 332 7 
E 126 489 3 
E 127 243 8 
E 127 281 8 
E 127 341 1 
E 127 361 5 
E 127 447 1 
E 128 280 2 
E 128 363 1 
E 128 409 6 
E 128 419 3 
E 128 455 6 
E 128 466 6 
E 128 477 4 
E 129 382 9 
E 129 445 10 
E 130 140 5 
E 130 295 3 
E 130 471 3 
E 131 168 10 
E 131 169 10 
E 132 161 10 
E 132 431 6 
E 133 329 6 
E 134 222 8 
E 135 136 5 
E 135 253 5 
E 135 381 1 
E 135 382 2 
E 135 497 10 
E 136 188 10 
E 137 164 8 
E 137 243 4 
E 138 324 5 
E 138 337 10 
E 138 492 4 
E 139 232 2 
E 139 310 2 
E 139 404 3 
E 139 455 10 
E 139 476 4 
E 140 415 3 
E 142 282 6 
E 142 455 8 
E 143 307 9 
E 143 338 3 
E 144 445 7 
E 145 191 7 
E 145 411 8 
E 146 175 3 
E 146 198 5 
E 146 339 5 
E 146 447 7 
E 146 466 2 
E 146 494 2 
E 147 198 3 
E 147 212 4 
E 147 288 9 
E 147 338 4 
E 147 489 6 
E 148 215 5 
E 148 220 4 
E 148 300 8 
E 148 392 1 
E 148 457 6 
E 148 475 5 
E 149 240 4 
E 149 272 6 
E 149 317 3 
E 149 369 6 
E 149 384 5 
E 150 180 6 
E 150 240 5 
E 150 498 6 
E 151 179 5 
E 151 260 8 
E 151 311 8 
E 151 319 1 
E 152 276 3 
E 152 381 10 
E 152 480 2 
E 153 298 3 
E 153 315 9 
E 153 345 4 
E 154 226 10 
E 154 252 4 
E 154 363 8 
E 154 447 2 
E 155 287 8 
E 156 250 6 
E 156 351 6 
E 157 201 6 
E 157 203 4 
E 157 223 5 
E 157 240 9 
E 157 395 4 
E 157 485 9 
E 158 265 5 
E 159 336 5 
E 159 496 4 
E 160 180 3 
E 162 205 2 
E 162 325 1 
E 163 175 6 
E 163 189 9 
E 163 242 5 
E 163 250 5 
E 163 346 3 
E 164 266 8 
E 164 394 8 
E 164 493 9 
E 165 193 5 
E 165 223 2 
E 165 380 3 
E 166 289 3 
E 166 306 8 
E 166 388 3 
E 166 394 6 
E 167 177 6 
E 167 219 3 
E 167 405 6 
E 168 275 5 
E 168 306 10 
E 168 327 6 
E 168 377 6 
E 168 382 1 
E 168 473 5 
E 168 493 1 
E 169 455 2 
E 170 244 9 
E 170 338 8 
E 170 413 4 
E 171 279 10 
E 171 490 6 
E 172 250 4 
E 172 375 3 
E 172 437 7 
E 173 220 9 
E 173 403 3 
E 174 232 7 
E 174 259 7 
E 174 273 2 
E 175 247 6 
E 175 415 3 
E 176 265 8 
E 176 271 2 
E 176 287 2 
E 176 400 9 
E 177 325 2 
E 178 378 7 
E 178 477 10 
E 179 180 1 
E 179 343 6 
E 179 435 6 
E 179 451 1 
E 180 210 9 
E 180 256 7 
E 180 272 1 
E 180 363 6 
E 181 224 9 
E 181 284 1 
E 181 301 4 
E 181 357 5 
E 182 373 9 
E 183 432 9 
E 183 443 6 
E 184 266 1 
E 184 328 1 
E 184 471 1 
E 185 283 5 
E 185 306 4 
E 186 449 5 
E 187 246 5 
E 187 336 1 
E 187 367 9 
E 187 434 5 
E 188 417 10 
E 189 191 2 
E 189 215 3 
E 189 334 3 
E 189 398 7 
E 189 441 5 
E 189 458 2 
E 190 393 5 
E 190 445 2 
E 190 475 10 
E 191 289 3 
E 191 425 2 
E 191 454 7 
E 192 271 3 
E 192 311 10 
E 192 426 5 
E 192 460 8 
E 192 476 7 
E 193 333 6 
E 193 350 10 
E 193 432 6 
E 194 490 1 
E 195 223 6 
E 195 323 4 
E 195 449 1 
E 197 306 8 
E 199 353 3 
E 199 354 1 
E 200 281 9 
E 200 315 3 
E 200 433 10 
E 201 253 1 
E 201 301 2 
E 201 423 9 
E 201 462 6 
E 201 481 7 
E 202 217 4 
E 202 252 8 
E 202 469 2 
E 203 285 7 
E 203 483 5 
E 204 245 3 
E 204 264 6 
E 206 303 3 
E 207 412 6 
E 208 381 3 
E 209 246 5 
E 209 373 8 
E 209 413 1 
E 210 264 9 
E 210 462 10 
E 210 475 10 
E 211 349 3 
E 212 255 2 
E 212 336 2 
E 212 342 3 
E 212 447 2 
E 213 327 2 
E 213 484 8 
E 214 386 4 
E 214 447 1 
E 214 479 10 
E 215 245 3 
E 216 286 2 
E 216 449 9 
E 217 225 2 
E 217 346 2 
E 218 386 2 
E 219 253 7 
E 219 363 5 
E 221 386 1 
E 221 387 8 
E 222 361 2 
E 222 485 8 
E 223 314 3 
E 223 376 9 
E 223 470 2 
E 224 225 10 
E 224 454 1 
E 225 243 4 
E 225 325 7 
E 225 331 8 
E 225 393 3 
E 226 304 1 
E 226 445 9 
E 226 464 10 
E 227 431 7 
E 227 454 5 
E 228 449 5 
E 229 302 2 
E 229 352 3 
E 229 392 4 
E 229 446 8 
E 230 234 10 
E 230 497 7 
E 231 369 1 
E 233 267 3 
E 233 342 1 
E 233 385 7 
E 233 405 10 
E 234 332 5 
E 234 359 5 
E 234 431 5 
E 234 441 3 
E 235 251 10 
E 235 320 5 
E 235 416 6 
E 235 426 5 
E 236 268 10 
E 236 315 4 
E 236 350 7 
E 237 287 2 
E 237 292 5 
E 238 241 8 
E 238 253 8 
E 238 289 4 
E 238 364 6 
E 238 415 4 
E 238 474 10 
E 239 464 7 
E 240 346 4 
E 240 495 5 
E 241 275 6 
E 241 276 2 
E 241 487 1 
E 242 286 4 
E 242 404 6 
E 242 481 3 
E 243 304 1 
E 244 300 7 
E 245 374 5 
E 245 379 7 
E 246 305 10 
E 246 386 8 
E 248 256 9 
E 248 478 8 
E 249 429 5 
E 249 493 5 
E 250 283 8 
E 250 431 4 
E 250 476 10 
E 251 355 9 
E 251 372 5 
E 251 401 4 
E 251 486 6 
E 252 300 2 
E 252 474 9 
E 253 259 10 
E 253 369 7 
E 253 487 10 
E 254 266 9 
E 254 447 8 
E 255 266 5 
E 255 272 6 
E 255 336 4 
E 255 423 9 
E 256 301 1 
E 256 380 9 
E 256 436 8 
E 257 314 1 
E 257 373 4 
E 257 405 4 
E 257 439 4 
E 258 273 7 
E 259 282 7 
E 259 395 7 
E 260 396 1 
E 262 439 2 
E 263 319 6 
E 263 420 5 
E 263 491 9 
E 263 499 5 
E 264 379 7 
E 264 387 7 
E 264 403 7 
E 265 314 2 
E 265 420 5 
E 265 446 9 
E 266 390 3 
E 267 401 9 
E 267 490 9 
E 268 341 7 
E 268 359 1 
E 269 272 5 
E 269 374 1 
E 270 284 4 
E 270 368 1 
E 270 372 9 
E 271 365 3 
E 271 385 8 
E 271 418 7 
E 272 302 1 
E 272 491 2 
E 273 397 2 
E 273 445 7 
E 273 455 6 
E 275 342 6 
E 275 347 6 
E 276 277 7 
E 276 302 2 
E 276 305 10 
E 276 359 8 
E 276 374 6 
E 276 381 5 
E 276 406 7 
E 276 449 10 
E 276 458 5 
E 277 314 3 
E 279 343 8 
E 279 413 1 
E 279 473 3 
E 281 463 7 
E 282 357 10 
E 283 407 10 
E 283 484 9 
E 284 330 7 
E 285 316 4 
E 285 404 7 
E 286 385 2 
E 286 397 1 
E 286 425 10 
E 287 310 7 
E 287 435 5 
E 288 469 10 
E 289 369 10 
E 290 402 10 
E 291 295 7 
E 291 410 10 
E 291 474 3 
E 291 487 6 
E 293 424 9 
E 294 353 3 
E 294 421 4 
E 295 376 2 
E 296 350 2 
E 296 395 1 
E 296 474 3 
E 296 482 6 
E 299 411 4 
E 299 434 2 
E 299 456 2 
E 300 337 7 
E 300 432 1 
E 300 436 1 
E 300 442 6 
E 301 366 5 
E 301 370 5 
E 301 378 7 
E 301 441 8 
E 303 329 2 
E 303 466 4 
E 303 496 6 
E 305 497 2 
E 306 380 10 
E 307 399 8 
E 307 435 1 
E 307 485 4 
E 310 376 6 
E 310 387 9 
E 310 392 1 
E 310 496 2 
E 312 454 10 
E 312 491 5 
E 313 333 3 
E 314 348 10 
E 314 404 2 
E 315 365 2 
E 315 373 8 
E 315 421 7 
E 316 331 8 
E 317 416 3 
E 319 322 4 
E 319 344 1 
E 320 488 10 
E 322 398 2 
E 323 407 5 
E 323 439 8 
E 323 471 1 
E 323 489 6 
E 324 439 8 
E 326 379 7 
E 327 336 2 
E 328 351 10 
E 328 390 10 
E 328 393 4 
E 328 493 2 
E 329 491 7 
E 330 355 10 
E 331 347 8 
E 331 447 4 
E 331 462 2 
E 332 392 6 
E 333 491 10 
E 334 497 5 
E 335 381 3 
E 335 412 3 
E 335 497 10 
E 336 375 5 
E 338 415 9 
E 340 384 4 
E 340 465 7 
E 340 489 2 
E 341 396 7 
E 341 430 2 
E 341 499 5 
E 342 380 8 
E 342 425 9 
E 342 453 2 
E 343 344 3 
E 343 350 8 
E 344 466 7 
E 346 382 9 
E 349 468 4 
E 350 485 1 
E 354 385 3 
E 355 359 8 
E 356 377 10 
E 357 447 7 
E 358 399 5 
E 360 364 5 
E 360 403 2 
E 360 430 2 
E 361 368 2 
E 361 372 9 
E 361 433 3 
E 361 487 6 
E 364 447 10 
E 364 451 1 
E 364 469 10 
E 364 470 3 
E 365 439 4 
E 369 412 8 
E 370 400 10 
E 370 421 10 
E 371 397 1 
E 371 441 8 
E 371 442 8 
E 372 465 5 
E 373 395 4 
E 373 400 6 
E 373 411 10 
E 374 397 8 
E 377 389 3 
E 379 380 3 
E 379 383 4 
E 379 393 1 
E 379 486 4 
E 381 483 4 
E 383 388 6 
E 383 492 6 
E 385 406 10 
E 385 421 8 
E 385 494 7 
E 386 437 1 
E 387 486 1 
E 389 483 8 
E 390 446 3 
E 392 483 3 
E 396 474 4 
E 397 424 1 
E 401 436 2 
E 401 498 5 
E 403 422 5 
E 404 468 5 
E 405 458 8 
E 409 487 2 
E 412 447 1 
E 412 500 3 
E 414 442 8 
E 415 472 9 
E 416 467 1 
E 417 440 7 
E 417 488 8 
E 418 482 6 
E 421 454 2 
E 422 484 2 
E 423 496 7 
E 425 443 6 
E 427 498 10 
E 429 484 6 
E 429 492 1 
E 430 433 7 
E 430 443 1 
E 434 477 6 
E 440 498 1 
E 441 479 9 
E 444 483 4 
E 445 460 8 
E 446 461 9 
E 447 477 10 
E 448 467 1 
E 448 487 2 
E 452 470 1 
E 456 494 5 
E 457 481 8 
E 466 474 3 
E 473 488 4 
E 478 487 7 
E 480 489 5 
E 483 484 6 
E 483 488 3 
E 483 493 3 
E 486 487 4 
END 

SECTION ProfitableVertices 
ProfitableVertices 83 
PV 1 1
PV 12 1
PV 13 2
PV 17 5
PV 19 2
PV 20 1
PV 26 6
PV 29 2
PV 30 8
PV 32 3
PV 36 7
PV 41 5
PV 46 7
PV 50 1
PV 54 6
PV 64 5
PV 74 7
PV 77 7
PV 80 5
PV 87 7
PV 88 4
PV 99 2
PV 101 6
PV 103 8
PV 115 3
PV 116 9
PV 119 8
PV 127 3
PV 134 9
PV 139 7
PV 145 4
PV 147 4
PV 148 9
PV 152 3
PV 157 1
PV 163 8
PV 175 7
PV 178 8
PV 183 1
PV 186 7
PV 187 5
PV 195 3
PV 200 9
PV 203 9
PV 211 6
PV 224 2
PV 227 3
PV 232 6
PV 235 3
PV 246 9
PV 248 7
PV 261 9
PV 262 8
PV 272 6
PV 274 6
PV 280 3
PV 282 2
PV 283 9
PV 284 7
PV 301 7
PV 305 3
PV 316 7
PV 321 3
PV 332 4
PV 350 3
PV 354 8
PV 361 7
PV 363 6
PV 372 1
PV 376 5
PV 386 5
PV 402 7
PV 414 4
PV 429 8
PV 431 2
PV 432 6
PV 439 9
PV 450 5
PV 470 6
PV 471 6
PV 476 3
PV 480 7
PV 490 6
END 

EOF 
